; benchmark generated from python API
(set-info :status unknown)
(declare-fun strlen_72_64 () (_ BitVec 64))
(declare-fun args_0_8 () (_ BitVec 8))
(declare-fun strlen_75_64 () (_ BitVec 64))
(declare-fun args_1_8 () (_ BitVec 8))
(declare-fun sigaction_oldact_171_1216 () (_ BitVec 1216))
(declare-fun sigaction_oldact_176_1216 () (_ BitVec 1216))
(declare-fun sigaction_oldact_186_1216 () (_ BitVec 1216))
(declare-fun sigaction_oldact_200_1216 () (_ BitVec 1216))
(declare-fun sigaction_oldact_225_1216 () (_ BitVec 1216))
(declare-fun sigaction_oldact_284_1216 () (_ BitVec 1216))
(declare-fun sigaction_oldact_403_1216 () (_ BitVec 1216))
(declare-fun sigaction_oldact_611_1216 () (_ BitVec 1216))
(declare-fun sigaction_oldact_1080_1216 () (_ BitVec 1216))
(declare-fun sigaction_oldact_2051_1216 () (_ BitVec 1216))
(assert
 (let (($x351 (= (_ bv1 64) strlen_72_64)))
 (not $x351)))
(assert
 (let ((?x82 (bvadd (_ bv576460752303357824 64) strlen_72_64)))
 (let (($x69 (= (_ bv0 8) args_0_8)))
 (let ((?x46 (ite $x69 (_ bv576460752303357824 64) (_ bv576460752303357825 64))))
 (= ?x46 ?x82)))))
(assert
 (let (($x347 (= (_ bv0 8) args_1_8)))
 (let ((?x355 (ite $x347 (_ bv576460752303357826 64) (_ bv576460752303357827 64))))
 (let ((?x356 (bvsub ?x355 (_ bv576460752303357826 64))))
 (= ?x356 strlen_75_64)))))
(assert
 (let ((?x1831 ((_ extract 127 120) sigaction_oldact_171_1216)))
 (let ((?x2319 (bvand ?x1831 (_ bv4 8))))
 (and (distinct (_ bv0 8) ?x2319) true))))
(assert
 (let ((?x2276 ((_ extract 127 120) sigaction_oldact_176_1216)))
 (let ((?x2398 (bvand ?x2276 (_ bv4 8))))
 (= (_ bv0 8) ?x2398))))
(assert
 (let ((?x2788 ((_ extract 127 120) sigaction_oldact_186_1216)))
 (let ((?x2813 (bvand ?x2788 (_ bv4 8))))
 (= (_ bv0 8) ?x2813))))
(assert
 (let ((?x3598 ((_ extract 127 120) sigaction_oldact_200_1216)))
 (let ((?x3623 (bvand ?x3598 (_ bv4 8))))
 (= (_ bv0 8) ?x3623))))
(assert
 (let ((?x5221 ((_ extract 127 120) sigaction_oldact_225_1216)))
 (let ((?x5246 (bvand ?x5221 (_ bv4 8))))
 (and (distinct (_ bv0 8) ?x5246) true))))
(assert
 (let ((?x9082 ((_ extract 127 120) sigaction_oldact_284_1216)))
 (let ((?x9107 (bvand ?x9082 (_ bv4 8))))
 (and (distinct (_ bv0 8) ?x9107) true))))
(assert
 (let ((?x17296 ((_ extract 127 120) sigaction_oldact_403_1216)))
 (let ((?x17313 (bvand ?x17296 (_ bv4 8))))
 (= (_ bv0 8) ?x17313))))
(assert
 (let ((?x32244 ((_ extract 127 120) sigaction_oldact_611_1216)))
 (let ((?x32269 (bvand ?x32244 (_ bv4 8))))
 (and (distinct (_ bv0 8) ?x32269) true))))
(assert
 (let ((?x61917 ((_ extract 127 120) sigaction_oldact_1080_1216)))
 (let ((?x19307 (bvand ?x61917 (_ bv4 8))))
 (and (distinct (_ bv0 8) ?x19307) true))))
(assert
 (let ((?x117102 ((_ extract 127 120) sigaction_oldact_2051_1216)))
 (let ((?x79247 (bvand ?x117102 (_ bv4 8))))
 (and (distinct (_ bv0 8) ?x79247) true))))
(minimize strlen_75_64)
(minimize sigaction_oldact_403_1216)
(minimize sigaction_oldact_186_1216)
(maximize sigaction_oldact_1080_1216)
(maximize sigaction_oldact_2051_1216)
(minimize sigaction_oldact_200_1216)
(maximize sigaction_oldact_176_1216)
(minimize args_1_8)
(maximize strlen_72_64)
(maximize sigaction_oldact_186_1216)
(minimize args_0_8)
(maximize args_1_8)
(minimize sigaction_oldact_1080_1216)
(minimize sigaction_oldact_176_1216)
(maximize sigaction_oldact_171_1216)
(check-sat)
(get-objectives)
